Maximize
F - f1 - f2

Subject to
F - 2y21 - 6y24 - 0y86 - 6y201 - 2y35 - 2y37 - 8y171 - 4y121 - 6y166 - 8y30 - 8y204 - 2y52 - 2y174 - 8y162 - 4y151 - 8y23 - 2y161 - 8y237 = 0
f1 - 0.007320s21 - 0.007320s24 - 0.007320s86 - 0.007320s201 - 0.007320s35 - 0.007320s37 - 0.007320s171 - 0.007320s121 - 0.007320s166 - 0.007320s30 - 0.007320s204 - 0.007320s52 - 0.007320s174 - 0.007320s162 - 0.007320s151 - 0.007320s23 - 0.007320s161 - 0.007320s237  = 0
f2 - 3.83y21 - 3.88y24 - 3.75y86 - 3.95y201 - 2.24y35 - 2.33y37 - 2.39y171 - 2.31y121 - 2.42y166 - 2.37y30 - 2.52y204 - 2.10y52 - 2.29y174 - 0.46y162 - 0.15y151 - 0.05y23 - 0.47y161 - 0.08y237 = 0

x50x171x1 + x50x121x1 + x50x166x1 + x50x30x1 + x50x174x1 + x50x162x1 + x50x151x1 + x50x237x1 
<= 1
x86x171x1 + x86x121x1 + x86x166x1 + x86x30x1 + x86x174x1 + x86x162x1 + x86x151x1 + x86x237x1 
<= 1
x72x171x1 + x72x121x1 + x72x166x1 + x72x30x1 + x72x174x1 + x72x162x1 + x72x151x1 + x72x237x1 
<= 1
x200x171x1 + x200x121x1 + x200x166x1 + x200x30x1 + x200x174x1 + x200x162x1 + x200x151x1 + x200x237x1 
<= 1
x140x166x1 + x140x30x1 + x140x174x1 + x140x162x1 + x140x151x1 + x140x237x1 
<= 1
x144x166x1 + x144x30x1 + x144x174x1 + x144x162x1 + x144x151x1 + x144x237x1 
<= 1
x73x37x2 + x73x171x2 + x73x121x2 + x73x204x2 + x73x162x2 + x73x23x2 + x73x161x2 
<= 1
x50x37x2 + x50x171x2 + x50x121x2 + x50x204x2 + x50x162x2 + x50x23x2 + x50x161x2 
<= 1
x72x37x2 + x72x171x2 + x72x121x2 + x72x204x2 + x72x162x2 + x72x23x2 + x72x161x2 
<= 1
x200x37x2 + x200x171x2 + x200x121x2 + x200x204x2 + x200x162x2 + x200x23x2 + x200x161x2 
<= 1
x140x204x2 + x140x162x2 + x140x23x2 + x140x161x2 
<= 1
x144x204x2 + x144x162x2 + x144x23x2 + x144x161x2 
<= 1
x95x35x3 + x95x204x3 + x95x52x3 + x95x161x3 
<= 2
x73x35x3 + x73x204x3 + x73x52x3 + x73x161x3 
<= 1
x86x35x3 + x86x204x3 + x86x52x3 + x86x161x3 
<= 1
x124x161x3 
<= 2



- x21x37x2 - x21x171x2 - x21x121x2 - x21x204x2 - x21x162x2 - x21x23x2 - x21x161x2 
= 0

- x21x35x3 - x21x204x3 - x21x52x3 - x21x161x3 
= 0




- x24x35x3 - x24x204x3 - x24x52x3 - x24x161x3 
= 0


- x86x171x1 - x86x121x1 - x86x166x1 - x86x30x1 - x86x174x1 - x86x162x1 - x86x151x1 - x86x237x1 
= 0


- x86x35x3 - x86x204x3 - x86x52x3 - x86x161x3 
= 0




- x201x35x3 - x201x204x3 - x201x52x3 - x201x161x3 
= 0



x95x35x3 + x73x35x3 + x86x35x3 + x21x35x3 + x24x35x3 + x86x35x3 + x201x35x3 
- x35x0x3
- x35x204x3 - x35x52x3 - x35x161x3 
= 0


x73x37x2 + x50x37x2 + x72x37x2 + x200x37x2 + x21x37x2 
- x37x0x2
- x37x171x2 - x37x121x2 - x37x204x2 - x37x162x2 - x37x23x2 - x37x161x2 
= 0


x50x171x1 + x86x171x1 + x72x171x1 + x200x171x1 + x86x171x1 
- x171x0x1
- x171x166x1 - x171x30x1 - x171x174x1 - x171x162x1 - x171x151x1 - x171x237x1 
= 0
x73x171x2 + x50x171x2 + x72x171x2 + x200x171x2 + x21x171x2 + x37x171x2 
- x171x0x2
- x171x204x2 - x171x162x2 - x171x23x2 - x171x161x2 
= 0


x50x121x1 + x86x121x1 + x72x121x1 + x200x121x1 + x86x121x1 
- x121x0x1
- x121x166x1 - x121x30x1 - x121x174x1 - x121x162x1 - x121x151x1 - x121x237x1 
= 0
x73x121x2 + x50x121x2 + x72x121x2 + x200x121x2 + x21x121x2 + x37x121x2 
- x121x0x2
- x121x204x2 - x121x162x2 - x121x23x2 - x121x161x2 
= 0


x50x166x1 + x86x166x1 + x72x166x1 + x200x166x1 + x140x166x1 + x144x166x1 + x86x166x1 + x171x166x1 + x121x166x1 
- x166x0x1
- x166x30x1 - x166x174x1 - x166x162x1 - x166x151x1 - x166x237x1 
= 0



x50x30x1 + x86x30x1 + x72x30x1 + x200x30x1 + x140x30x1 + x144x30x1 + x86x30x1 + x171x30x1 + x121x30x1 + x166x30x1 
- x30x0x1
- x30x174x1 - x30x162x1 - x30x151x1 - x30x237x1 
= 0




x73x204x2 + x50x204x2 + x72x204x2 + x200x204x2 + x140x204x2 + x144x204x2 + x21x204x2 + x37x204x2 + x171x204x2 + x121x204x2 
- x204x0x2
- x204x162x2 - x204x23x2 - x204x161x2 
= 0
x95x204x3 + x73x204x3 + x86x204x3 + x21x204x3 + x24x204x3 + x86x204x3 + x201x204x3 + x35x204x3 
- x204x0x3
- x204x161x3 
= 0



x95x52x3 + x73x52x3 + x86x52x3 + x21x52x3 + x24x52x3 + x86x52x3 + x201x52x3 + x35x52x3 
- x52x0x3
- x52x161x3 
= 0

x50x174x1 + x86x174x1 + x72x174x1 + x200x174x1 + x140x174x1 + x144x174x1 + x86x174x1 + x171x174x1 + x121x174x1 + x166x174x1 + x30x174x1 
- x174x0x1
- x174x162x1 - x174x151x1 - x174x237x1 
= 0



x50x162x1 + x86x162x1 + x72x162x1 + x200x162x1 + x140x162x1 + x144x162x1 + x86x162x1 + x171x162x1 + x121x162x1 + x166x162x1 + x30x162x1 + x174x162x1 
- x162x0x1
- x162x151x1 - x162x237x1 
= 0
x73x162x2 + x50x162x2 + x72x162x2 + x200x162x2 + x140x162x2 + x144x162x2 + x21x162x2 + x37x162x2 + x171x162x2 + x121x162x2 + x204x162x2 
- x162x0x2
- x162x23x2 - x162x161x2 
= 0


x50x151x1 + x86x151x1 + x72x151x1 + x200x151x1 + x140x151x1 + x144x151x1 + x86x151x1 + x171x151x1 + x121x151x1 + x166x151x1 + x30x151x1 + x174x151x1 + x162x151x1 
- x151x0x1

= 0




x73x23x2 + x50x23x2 + x72x23x2 + x200x23x2 + x140x23x2 + x144x23x2 + x21x23x2 + x37x23x2 + x171x23x2 + x121x23x2 + x204x23x2 + x162x23x2 
- x23x0x2

= 0



x73x161x2 + x50x161x2 + x72x161x2 + x200x161x2 + x140x161x2 + x144x161x2 + x21x161x2 + x37x161x2 + x171x161x2 + x121x161x2 + x204x161x2 + x162x161x2 
- x161x0x2

= 0
x95x161x3 + x73x161x3 + x86x161x3 + x124x161x3 + x21x161x3 + x24x161x3 + x86x161x3 + x201x161x3 + x35x161x3 + x204x161x3 + x52x161x3 
- x161x0x3

= 0

x50x237x1 + x86x237x1 + x72x237x1 + x200x237x1 + x140x237x1 + x144x237x1 + x86x237x1 + x171x237x1 + x121x237x1 + x166x237x1 + x30x237x1 + x174x237x1 + x162x237x1 
- x237x0x1

= 0



1y21 = 0
1y21 = 0
2y24 = 0
1y86 = 0
1y86 = 0
2y201 = 0
2y35 - x95x35x3 - x73x35x3 - x86x35x3 - x21x35x3 - x24x35x3 - x86x35x3 - x201x35x3 = 0
2y37 - x73x37x2 - x50x37x2 - x72x37x2 - x200x37x2 - x21x37x2 = 0
1y171 - x50x171x1 - x86x171x1 - x72x171x1 - x200x171x1 - x86x171x1 = 0
1y171 - x73x171x2 - x50x171x2 - x72x171x2 - x200x171x2 - x21x171x2 - x37x171x2 = 0
1y121 - x50x121x1 - x86x121x1 - x72x121x1 - x200x121x1 - x86x121x1 = 0
1y121 - x73x121x2 - x50x121x2 - x72x121x2 - x200x121x2 - x21x121x2 - x37x121x2 = 0
2y166 - x50x166x1 - x86x166x1 - x72x166x1 - x200x166x1 - x140x166x1 - x144x166x1 - x86x166x1 - x171x166x1 - x121x166x1 = 0
2y30 - x50x30x1 - x86x30x1 - x72x30x1 - x200x30x1 - x140x30x1 - x144x30x1 - x86x30x1 - x171x30x1 - x121x30x1 - x166x30x1 = 0
1y204 - x73x204x2 - x50x204x2 - x72x204x2 - x200x204x2 - x140x204x2 - x144x204x2 - x21x204x2 - x37x204x2 - x171x204x2 - x121x204x2 = 0
1y204 - x95x204x3 - x73x204x3 - x86x204x3 - x21x204x3 - x24x204x3 - x86x204x3 - x201x204x3 - x35x204x3 = 0
2y52 - x95x52x3 - x73x52x3 - x86x52x3 - x21x52x3 - x24x52x3 - x86x52x3 - x201x52x3 - x35x52x3 = 0
2y174 - x50x174x1 - x86x174x1 - x72x174x1 - x200x174x1 - x140x174x1 - x144x174x1 - x86x174x1 - x171x174x1 - x121x174x1 - x166x174x1 - x30x174x1 = 0
1y162 - x50x162x1 - x86x162x1 - x72x162x1 - x200x162x1 - x140x162x1 - x144x162x1 - x86x162x1 - x171x162x1 - x121x162x1 - x166x162x1 - x30x162x1 - x174x162x1 = 0
1y162 - x73x162x2 - x50x162x2 - x72x162x2 - x200x162x2 - x140x162x2 - x144x162x2 - x21x162x2 - x37x162x2 - x171x162x2 - x121x162x2 - x204x162x2 = 0
2y151 - x50x151x1 - x86x151x1 - x72x151x1 - x200x151x1 - x140x151x1 - x144x151x1 - x86x151x1 - x171x151x1 - x121x151x1 - x166x151x1 - x30x151x1 - x174x151x1 - x162x151x1 = 0
2y23 - x73x23x2 - x50x23x2 - x72x23x2 - x200x23x2 - x140x23x2 - x144x23x2 - x21x23x2 - x37x23x2 - x171x23x2 - x121x23x2 - x204x23x2 - x162x23x2 = 0
1y161 - x73x161x2 - x50x161x2 - x72x161x2 - x200x161x2 - x140x161x2 - x144x161x2 - x21x161x2 - x37x161x2 - x171x161x2 - x121x161x2 - x204x161x2 - x162x161x2 = 0
1y161 - x95x161x3 - x73x161x3 - x86x161x3 - x124x161x3 - x21x161x3 - x24x161x3 - x86x161x3 - x201x161x3 - x35x161x3 - x204x161x3 - x52x161x3 = 0
2y237 - x50x237x1 - x86x237x1 - x72x237x1 - x200x237x1 - x140x237x1 - x144x237x1 - x86x237x1 - x171x237x1 - x121x237x1 - x166x237x1 - x30x237x1 - x174x237x1 - x162x237x1 = 0

s95 - s35 + 6.632573z95z35z3 <= 4.97
s95 - s204 + 6.720715z95z204z3 <= 4.97
s95 - s52 + 6.677154z95z52z3 <= 4.97
s95 - s161 + 6.975443z95z161z3 <= 4.97
s73 - s35 + 6.960402z73z35z3 <= 5.36
s73 - s37 + 6.957458z73z37z2 <= 5.36
s73 - s171 + 6.962345z73z171z2 <= 5.36
s73 - s121 + 6.969728z73z121z2 <= 5.36
s73 - s204 + 6.961905z73z204z2 <= 5.36
s73 - s204 + 6.961905z73z204z3 <= 5.36
s73 - s52 + 7.003954z73z52z3 <= 5.36
s73 - s162 + 7.369828z73z162z2 <= 5.36
s73 - s23 + 7.439117z73z23z2 <= 5.36
s73 - s161 + 7.415092z73z161z2 <= 5.36
s73 - s161 + 7.415092z73z161z3 <= 5.36
s50 - s37 + 6.827710z50z37z2 <= 5.42
s50 - s171 + 6.852388z50z171z1 <= 5.42
s50 - s171 + 6.852388z50z171z2 <= 5.42
s50 - s121 + 6.846523z50z121z1 <= 5.42
s50 - s121 + 6.846523z50z121z2 <= 5.42
s50 - s166 + 6.872144z50z166z1 <= 5.42
s50 - s30 + 6.871157z50z30z1 <= 5.42
s50 - s204 + 6.884015z50z204z2 <= 5.42
s50 - s174 + 6.889173z50z174z1 <= 5.42
s50 - s162 + 7.167269z50z162z1 <= 5.42
s50 - s162 + 7.167269z50z162z2 <= 5.42
s50 - s151 + 7.214902z50z151z1 <= 5.42
s50 - s23 + 7.214174z50z23z2 <= 5.42
s50 - s161 + 7.232270z50z161z2 <= 5.42
s50 - s237 + 7.178652z50z237z1 <= 5.42
s86 - s35 + 6.762315z86z35z3 <= 5.47
s86 - s171 + 6.779586z86z171z1 <= 5.47
s86 - s121 + 6.782550z86z121z1 <= 5.47
s86 - s166 + 6.792116z86z166z1 <= 5.47
s86 - s30 + 6.796277z86z30z1 <= 5.47
s86 - s204 + 6.793231z86z204z3 <= 5.47
s86 - s52 + 6.812407z86z52z3 <= 5.47
s86 - s174 + 6.817358z86z174z1 <= 5.47
s86 - s162 + 7.176284z86z162z1 <= 5.47
s86 - s151 + 7.234769z86z151z1 <= 5.47
s86 - s161 + 7.228936z86z161z3 <= 5.47
s86 - s237 + 7.221128z86z237z1 <= 5.47
s72 - s37 + 7.286034z72z37z2 <= 5.82
s72 - s171 + 7.313495z72z171z1 <= 5.82
s72 - s171 + 7.313495z72z171z2 <= 5.82
s72 - s121 + 7.301864z72z121z1 <= 5.82
s72 - s121 + 7.301864z72z121z2 <= 5.82
s72 - s166 + 7.334434z72z166z1 <= 5.82
s72 - s30 + 7.329345z72z30z1 <= 5.82
s72 - s204 + 7.352737z72z204z2 <= 5.82
s72 - s174 + 7.340578z72z174z1 <= 5.82
s72 - s162 + 7.500994z72z162z1 <= 5.82
s72 - s162 + 7.500994z72z162z2 <= 5.82
s72 - s151 + 7.534095z72z151z1 <= 5.82
s72 - s23 + 7.527372z72z23z2 <= 5.82
s72 - s161 + 7.571438z72z161z2 <= 5.82
s72 - s237 + 7.480454z72z237z1 <= 5.82
s200 - s37 + 7.275991z200z37z2 <= 5.83
s200 - s171 + 7.303222z200z171z1 <= 5.83
s200 - s171 + 7.303222z200z171z2 <= 5.83
s200 - s121 + 7.290791z200z121z1 <= 5.83
s200 - s121 + 7.290791z200z121z2 <= 5.83
s200 - s166 + 7.323863z200z166z1 <= 5.83
s200 - s30 + 7.318106z200z30z1 <= 5.83
s200 - s204 + 7.342990z200z204z2 <= 5.83
s200 - s174 + 7.327782z200z174z1 <= 5.83
s200 - s162 + 7.468073z200z162z1 <= 5.83
s200 - s162 + 7.468073z200z162z2 <= 5.83
s200 - s151 + 7.499534z200z151z1 <= 5.83
s200 - s23 + 7.492292z200z23z2 <= 5.83
s200 - s161 + 7.538730z200z161z2 <= 5.83
s200 - s237 + 7.444595z200z237z1 <= 5.83
s140 - s166 + 7.428732z140z166z1 <= 5.92
s140 - s30 + 7.423244z140z30z1 <= 5.92
s140 - s204 + 7.447536z140z204z2 <= 5.92
s140 - s174 + 7.433561z140z174z1 <= 5.92
s140 - s162 + 7.580619z140z162z1 <= 5.92
s140 - s162 + 7.580619z140z162z2 <= 5.92
s140 - s151 + 7.612351z140z151z1 <= 5.92
s140 - s23 + 7.605168z140z23z2 <= 5.92
s140 - s161 + 7.651239z140z161z2 <= 5.92
s140 - s237 + 7.557522z140z237z1 <= 5.92
s144 - s166 + 7.430273z144z166z1 <= 5.93
s144 - s30 + 7.424416z144z30z1 <= 5.93
s144 - s204 + 7.449515z144z204z2 <= 5.93
s144 - s174 + 7.433843z144z174z1 <= 5.93
s144 - s162 + 7.570478z144z162z1 <= 5.93
s144 - s162 + 7.570478z144z162z2 <= 5.93
s144 - s151 + 7.601564z144z151z1 <= 5.93
s144 - s23 + 7.594200z144z23z2 <= 5.93
s144 - s161 + 7.641171z144z161z2 <= 5.93
s144 - s237 + 7.546310z144z237z1 <= 5.93
s124 - s161 + 7.768744z124z161z3 <= 6.00
s21 - s35 + 7.714064z21z35z3 <= 6.44
s21 - s37 + 7.713415z21z37z2 <= 6.44
s21 - s171 + 7.721977z21z171z2 <= 6.44
s21 - s121 + 7.727364z21z121z2 <= 6.44
s21 - s204 + 7.729444z21z204z2 <= 6.44
s21 - s204 + 7.729444z21z204z3 <= 6.44
s21 - s52 + 7.760069z21z52z3 <= 6.44
s21 - s162 + 8.126699z21z162z2 <= 6.44
s21 - s23 + 8.194071z21z23z2 <= 6.44
s21 - s161 + 8.175784z21z161z2 <= 6.44
s21 - s161 + 8.175784z21z161z3 <= 6.44
s24 - s35 + 7.660666z24z35z3 <= 6.36
s24 - s204 + 7.686939z24z204z3 <= 6.36
s24 - s52 + 7.709794z24z52z3 <= 6.36
s24 - s161 + 8.126551z24z161z3 <= 6.36
s86 - s35 + 7.708598z86z35z3 <= 6.42
s86 - s171 + 7.725869z86z171z1 <= 6.42
s86 - s121 + 7.728833z86z121z1 <= 6.42
s86 - s166 + 7.738399z86z166z1 <= 6.42
s86 - s30 + 7.742559z86z30z1 <= 6.42
s86 - s204 + 7.739513z86z204z3 <= 6.42
s86 - s52 + 7.758690z86z52z3 <= 6.42
s86 - s174 + 7.763641z86z174z1 <= 6.42
s86 - s162 + 8.122567z86z162z1 <= 6.42
s86 - s151 + 8.181052z86z151z1 <= 6.42
s86 - s161 + 8.175219z86z161z3 <= 6.42
s86 - s237 + 8.167410z86z237z1 <= 6.42
s201 - s35 + 7.650074z201z35z3 <= 6.35
s201 - s204 + 7.668678z201z204z3 <= 6.35
s201 - s52 + 7.697243z201z52z3 <= 6.35
s201 - s161 + 8.113529z201z161z3 <= 6.35
s35 - s204 + 8.423571z35z204z3 <= 7.33
s35 - s52 + 8.383748z35z52z3 <= 7.33
s35 - s161 + 8.796905z35z161z3 <= 7.33
s37 - s171 + 8.357488z37z171z2 <= 7.33
s37 - s121 + 8.348856z37z121z2 <= 7.33
s37 - s204 + 8.396999z37z204z2 <= 7.33
s37 - s162 + 8.743333z37z162z2 <= 7.33
s37 - s23 + 8.811664z37z23z2 <= 7.33
s37 - s161 + 8.793081z37z161z2 <= 7.33
s171 - s166 + 8.401082z171z166z1 <= 7.38
s171 - s30 + 8.398856z171z30z1 <= 7.38
s171 - s204 + 8.420000z171z204z2 <= 7.38
s171 - s174 + 8.418873z171z174z1 <= 7.38
s171 - s162 + 8.787540z171z162z1 <= 7.38
s171 - s162 + 8.787540z171z162z2 <= 7.38
s171 - s151 + 8.848994z171z151z1 <= 7.38
s171 - s23 + 8.858006z171z23z2 <= 7.38
s171 - s161 + 8.834117z171z161z2 <= 7.38
s171 - s237 + 8.848947z171z237z1 <= 7.38
s121 - s166 + 8.423333z121z166z1 <= 7.39
s121 - s30 + 8.417487z121z30z1 <= 7.39
s121 - s204 + 8.443748z121z204z2 <= 7.39
s121 - s174 + 8.432688z121z174z1 <= 7.39
s121 - s162 + 8.790222z121z162z1 <= 7.39
s121 - s162 + 8.790222z121z162z2 <= 7.39
s121 - s151 + 8.851206z121z151z1 <= 7.39
s121 - s23 + 8.859704z121z23z2 <= 7.39
s121 - s161 + 8.838454z121z161z2 <= 7.39
s121 - s237 + 8.849226z121z237z1 <= 7.39
s166 - s30 + 8.449429z166z30z1 <= 7.44
s166 - s174 + 8.466667z166z174z1 <= 7.44
s166 - s162 + 8.842713z166z162z1 <= 7.44
s166 - s151 + 8.904806z166z151z1 <= 7.44
s166 - s237 + 8.908093z166z237z1 <= 7.44
s30 - s174 + 8.471082z30z174z1 <= 7.45
s30 - s162 + 8.845362z30z162z1 <= 7.45
s30 - s151 + 8.907287z30z151z1 <= 7.45
s30 - s237 + 8.909759z30z237z1 <= 7.45
s204 - s162 + 8.882094z204z162z2 <= 7.47
s204 - s23 + 8.955203z204z23z2 <= 7.47
s204 - s161 + 8.923529z204z161z2 <= 7.47
s204 - s161 + 8.923529z204z161z3 <= 7.47
s52 - s161 + 8.896760z52z161z3 <= 7.48
s174 - s162 + 8.906239z174z162z1 <= 7.53
s174 - s151 + 8.968431z174z151z1 <= 7.53
s174 - s237 + 8.972719z174z237z1 <= 7.53
s162 - s151 + 9.743246z162z151z1 <= 8.68
s162 - s23 + 9.757747z162z23z2 <= 8.68
s162 - s161 + 9.750868z162z161z2 <= 8.68
s162 - s237 + 9.784350z162z237z1 <= 8.68

x95x35x3 - 2z95z35z3 <= 0
x95x204x3 - 1z95z204z3 <= 0
x95x52x3 - 2z95z52z3 <= 0
x95x161x3 - 1z95z161z3 <= 0
x73x35x3 - 2z73z35z3 <= 0
x73x37x2 - 2z73z37z2 <= 0
x73x171x2 - 1z73z171z2 <= 0
x73x121x2 - 1z73z121z2 <= 0
x73x204x2 - 1z73z204z2 <= 0
x73x204x3 - 1z73z204z3 <= 0
x73x52x3 - 2z73z52z3 <= 0
x73x162x2 - 1z73z162z2 <= 0
x73x23x2 - 2z73z23z2 <= 0
x73x161x2 - 1z73z161z2 <= 0
x73x161x3 - 1z73z161z3 <= 0
x50x37x2 - 2z50z37z2 <= 0
x50x171x1 - 1z50z171z1 <= 0
x50x171x2 - 1z50z171z2 <= 0
x50x121x1 - 1z50z121z1 <= 0
x50x121x2 - 1z50z121z2 <= 0
x50x166x1 - 2z50z166z1 <= 0
x50x30x1 - 2z50z30z1 <= 0
x50x204x2 - 1z50z204z2 <= 0
x50x174x1 - 2z50z174z1 <= 0
x50x162x1 - 1z50z162z1 <= 0
x50x162x2 - 1z50z162z2 <= 0
x50x151x1 - 2z50z151z1 <= 0
x50x23x2 - 2z50z23z2 <= 0
x50x161x2 - 1z50z161z2 <= 0
x50x237x1 - 2z50z237z1 <= 0
x86x35x3 - 2z86z35z3 <= 0
x86x171x1 - 1z86z171z1 <= 0
x86x121x1 - 1z86z121z1 <= 0
x86x166x1 - 2z86z166z1 <= 0
x86x30x1 - 2z86z30z1 <= 0
x86x204x3 - 1z86z204z3 <= 0
x86x52x3 - 2z86z52z3 <= 0
x86x174x1 - 2z86z174z1 <= 0
x86x162x1 - 1z86z162z1 <= 0
x86x151x1 - 2z86z151z1 <= 0
x86x161x3 - 1z86z161z3 <= 0
x86x237x1 - 2z86z237z1 <= 0
x72x37x2 - 2z72z37z2 <= 0
x72x171x1 - 1z72z171z1 <= 0
x72x171x2 - 1z72z171z2 <= 0
x72x121x1 - 1z72z121z1 <= 0
x72x121x2 - 1z72z121z2 <= 0
x72x166x1 - 2z72z166z1 <= 0
x72x30x1 - 2z72z30z1 <= 0
x72x204x2 - 1z72z204z2 <= 0
x72x174x1 - 2z72z174z1 <= 0
x72x162x1 - 1z72z162z1 <= 0
x72x162x2 - 1z72z162z2 <= 0
x72x151x1 - 2z72z151z1 <= 0
x72x23x2 - 2z72z23z2 <= 0
x72x161x2 - 1z72z161z2 <= 0
x72x237x1 - 2z72z237z1 <= 0
x200x37x2 - 2z200z37z2 <= 0
x200x171x1 - 1z200z171z1 <= 0
x200x171x2 - 1z200z171z2 <= 0
x200x121x1 - 1z200z121z1 <= 0
x200x121x2 - 1z200z121z2 <= 0
x200x166x1 - 2z200z166z1 <= 0
x200x30x1 - 2z200z30z1 <= 0
x200x204x2 - 1z200z204z2 <= 0
x200x174x1 - 2z200z174z1 <= 0
x200x162x1 - 1z200z162z1 <= 0
x200x162x2 - 1z200z162z2 <= 0
x200x151x1 - 2z200z151z1 <= 0
x200x23x2 - 2z200z23z2 <= 0
x200x161x2 - 1z200z161z2 <= 0
x200x237x1 - 2z200z237z1 <= 0
x140x166x1 - 2z140z166z1 <= 0
x140x30x1 - 2z140z30z1 <= 0
x140x204x2 - 1z140z204z2 <= 0
x140x174x1 - 2z140z174z1 <= 0
x140x162x1 - 1z140z162z1 <= 0
x140x162x2 - 1z140z162z2 <= 0
x140x151x1 - 2z140z151z1 <= 0
x140x23x2 - 2z140z23z2 <= 0
x140x161x2 - 1z140z161z2 <= 0
x140x237x1 - 2z140z237z1 <= 0
x144x166x1 - 2z144z166z1 <= 0
x144x30x1 - 2z144z30z1 <= 0
x144x204x2 - 1z144z204z2 <= 0
x144x174x1 - 2z144z174z1 <= 0
x144x162x1 - 1z144z162z1 <= 0
x144x162x2 - 1z144z162z2 <= 0
x144x151x1 - 2z144z151z1 <= 0
x144x23x2 - 2z144z23z2 <= 0
x144x161x2 - 1z144z161z2 <= 0
x144x237x1 - 2z144z237z1 <= 0
x124x161x3 - 1z124z161z3 <= 0
x21x35x3 - 2z21z35z3 <= 0
x21x37x2 - 2z21z37z2 <= 0
x21x171x2 - 1z21z171z2 <= 0
x21x121x2 - 1z21z121z2 <= 0
x21x204x2 - 1z21z204z2 <= 0
x21x204x3 - 1z21z204z3 <= 0
x21x52x3 - 2z21z52z3 <= 0
x21x162x2 - 1z21z162z2 <= 0
x21x23x2 - 2z21z23z2 <= 0
x21x161x2 - 1z21z161z2 <= 0
x21x161x3 - 1z21z161z3 <= 0
x21x0x2 <= 1
x21x0x3 <= 1
x24x35x3 - 2z24z35z3 <= 0
x24x204x3 - 1z24z204z3 <= 0
x24x52x3 - 2z24z52z3 <= 0
x24x161x3 - 1z24z161z3 <= 0
x24x0x3 <= 2
x86x35x3 - 2z86z35z3 <= 0
x86x171x1 - 1z86z171z1 <= 0
x86x121x1 - 1z86z121z1 <= 0
x86x166x1 - 2z86z166z1 <= 0
x86x30x1 - 2z86z30z1 <= 0
x86x204x3 - 1z86z204z3 <= 0
x86x52x3 - 2z86z52z3 <= 0
x86x174x1 - 2z86z174z1 <= 0
x86x162x1 - 1z86z162z1 <= 0
x86x151x1 - 2z86z151z1 <= 0
x86x161x3 - 1z86z161z3 <= 0
x86x237x1 - 2z86z237z1 <= 0
x86x0x1 <= 1
x86x0x3 <= 1
x201x35x3 - 2z201z35z3 <= 0
x201x204x3 - 1z201z204z3 <= 0
x201x52x3 - 2z201z52z3 <= 0
x201x161x3 - 1z201z161z3 <= 0
x201x0x3 <= 2
x35x204x3 - 1z35z204z3 <= 0
x35x52x3 - 2z35z52z3 <= 0
x35x161x3 - 1z35z161z3 <= 0
x35x0x3 <= 2
x37x171x2 - 1z37z171z2 <= 0
x37x121x2 - 1z37z121z2 <= 0
x37x204x2 - 1z37z204z2 <= 0
x37x162x2 - 1z37z162z2 <= 0
x37x23x2 - 2z37z23z2 <= 0
x37x161x2 - 1z37z161z2 <= 0
x37x0x2 <= 2
x171x166x1 - 2z171z166z1 <= 0
x171x30x1 - 2z171z30z1 <= 0
x171x204x2 - 1z171z204z2 <= 0
x171x174x1 - 2z171z174z1 <= 0
x171x162x1 - 1z171z162z1 <= 0
x171x162x2 - 1z171z162z2 <= 0
x171x151x1 - 2z171z151z1 <= 0
x171x23x2 - 2z171z23z2 <= 0
x171x161x2 - 1z171z161z2 <= 0
x171x237x1 - 2z171z237z1 <= 0
x171x0x1 <= 1
x171x0x2 <= 1
x121x166x1 - 2z121z166z1 <= 0
x121x30x1 - 2z121z30z1 <= 0
x121x204x2 - 1z121z204z2 <= 0
x121x174x1 - 2z121z174z1 <= 0
x121x162x1 - 1z121z162z1 <= 0
x121x162x2 - 1z121z162z2 <= 0
x121x151x1 - 2z121z151z1 <= 0
x121x23x2 - 2z121z23z2 <= 0
x121x161x2 - 1z121z161z2 <= 0
x121x237x1 - 2z121z237z1 <= 0
x121x0x1 <= 1
x121x0x2 <= 1
x166x30x1 - 2z166z30z1 <= 0
x166x174x1 - 2z166z174z1 <= 0
x166x162x1 - 1z166z162z1 <= 0
x166x151x1 - 2z166z151z1 <= 0
x166x237x1 - 2z166z237z1 <= 0
x166x0x1 <= 2
x30x174x1 - 2z30z174z1 <= 0
x30x162x1 - 1z30z162z1 <= 0
x30x151x1 - 2z30z151z1 <= 0
x30x237x1 - 2z30z237z1 <= 0
x30x0x1 <= 2
x204x162x2 - 1z204z162z2 <= 0
x204x23x2 - 2z204z23z2 <= 0
x204x161x2 - 1z204z161z2 <= 0
x204x161x3 - 1z204z161z3 <= 0
x204x0x2 <= 1
x204x0x3 <= 1
x52x161x3 - 1z52z161z3 <= 0
x52x0x3 <= 2
x174x162x1 - 1z174z162z1 <= 0
x174x151x1 - 2z174z151z1 <= 0
x174x237x1 - 2z174z237z1 <= 0
x174x0x1 <= 2
x162x151x1 - 2z162z151z1 <= 0
x162x23x2 - 2z162z23z2 <= 0
x162x161x2 - 1z162z161z2 <= 0
x162x237x1 - 2z162z237z1 <= 0
x162x0x1 <= 1
x162x0x2 <= 1
x151x0x1 <= 2
x23x0x2 <= 2
x161x0x2 <= 1
x161x0x3 <= 1
x237x0x1 <= 2

Bounds
s95 = 4.970455
s73 = 5.355092
s50 = 5.421317
s86 = 5.473717
s72 = 5.816661
s200 = 5.826894
s140 = 5.915788
s144 = 5.934065
s124 = 5.995583
6.000000 <= s21 <= 6.440000
6.000000 <= s24 <= 6.360000
6.000000 <= s86 <= 6.420000
6.000000 <= s201 <= 6.350000
6.330000 <= s35 <= 7.330000
6.330000 <= s37 <= 7.330000
6.380000 <= s171 <= 7.380000
6.390000 <= s121 <= 7.390000
6.440000 <= s166 <= 7.440000
6.450000 <= s30 <= 7.450000
6.470000 <= s204 <= 7.470000
6.480000 <= s52 <= 7.480000
6.530000 <= s174 <= 7.530000
7.680000 <= s162 <= 8.680000
7.870000 <= s151 <= 8.870000
7.900000 <= s23 <= 8.900000
7.900000 <= s161 <= 8.900000
7.900000 <= s237 <= 8.900000

General
x95x35x3 x95x204x3 x95x52x3 x95x161x3 
x73x35x3 x73x37x2 x73x171x2 x73x121x2 x73x204x2 x73x204x3 x73x52x3 x73x162x2 x73x23x2 x73x161x2 x73x161x3 
x50x37x2 x50x171x1 x50x171x2 x50x121x1 x50x121x2 x50x166x1 x50x30x1 x50x204x2 x50x174x1 x50x162x1 x50x162x2 x50x151x1 x50x23x2 x50x161x2 x50x237x1 
x86x35x3 x86x171x1 x86x121x1 x86x166x1 x86x30x1 x86x204x3 x86x52x3 x86x174x1 x86x162x1 x86x151x1 x86x161x3 x86x237x1 
x72x37x2 x72x171x1 x72x171x2 x72x121x1 x72x121x2 x72x166x1 x72x30x1 x72x204x2 x72x174x1 x72x162x1 x72x162x2 x72x151x1 x72x23x2 x72x161x2 x72x237x1 
x200x37x2 x200x171x1 x200x171x2 x200x121x1 x200x121x2 x200x166x1 x200x30x1 x200x204x2 x200x174x1 x200x162x1 x200x162x2 x200x151x1 x200x23x2 x200x161x2 x200x237x1 
x140x166x1 x140x30x1 x140x204x2 x140x174x1 x140x162x1 x140x162x2 x140x151x1 x140x23x2 x140x161x2 x140x237x1 
x144x166x1 x144x30x1 x144x204x2 x144x174x1 x144x162x1 x144x162x2 x144x151x1 x144x23x2 x144x161x2 x144x237x1 
x124x161x3 
x21x35x3 x21x37x2 x21x171x2 x21x121x2 x21x204x2 x21x204x3 x21x52x3 x21x162x2 x21x23x2 x21x161x2 x21x161x3 x21x0x2 x21x0x3 
x24x35x3 x24x204x3 x24x52x3 x24x161x3 x24x0x3 
x86x35x3 x86x171x1 x86x121x1 x86x166x1 x86x30x1 x86x204x3 x86x52x3 x86x174x1 x86x162x1 x86x151x1 x86x161x3 x86x237x1 x86x0x1 x86x0x3 
x201x35x3 x201x204x3 x201x52x3 x201x161x3 x201x0x3 
x35x204x3 x35x52x3 x35x161x3 x35x0x3 
x37x171x2 x37x121x2 x37x204x2 x37x162x2 x37x23x2 x37x161x2 x37x0x2 
x171x166x1 x171x30x1 x171x204x2 x171x174x1 x171x162x1 x171x162x2 x171x151x1 x171x23x2 x171x161x2 x171x237x1 x171x0x1 x171x0x2 
x121x166x1 x121x30x1 x121x204x2 x121x174x1 x121x162x1 x121x162x2 x121x151x1 x121x23x2 x121x161x2 x121x237x1 x121x0x1 x121x0x2 
x166x30x1 x166x174x1 x166x162x1 x166x151x1 x166x237x1 x166x0x1 
x30x174x1 x30x162x1 x30x151x1 x30x237x1 x30x0x1 
x204x162x2 x204x23x2 x204x161x2 x204x161x3 x204x0x2 x204x0x3 
x52x161x3 x52x0x3 
x174x162x1 x174x151x1 x174x237x1 x174x0x1 
x162x151x1 x162x23x2 x162x161x2 x162x237x1 x162x0x1 x162x0x2 
x151x0x1 
x23x0x2 
x161x0x2 x161x0x3 
x237x0x1 

Binaries
y21 y24 y86 y201 y35 y37 y171 y121 y166 y30 y204 y52 y174 y162 y151 y23 y161 y237 
z95z35z3 z95z204z3 z95z52z3 z95z161z3 
z73z35z3 z73z37z2 z73z171z2 z73z121z2 z73z204z2 z73z204z3 z73z52z3 z73z162z2 z73z23z2 z73z161z2 z73z161z3 
z50z37z2 z50z171z1 z50z171z2 z50z121z1 z50z121z2 z50z166z1 z50z30z1 z50z204z2 z50z174z1 z50z162z1 z50z162z2 z50z151z1 z50z23z2 z50z161z2 z50z237z1 
z86z35z3 z86z171z1 z86z121z1 z86z166z1 z86z30z1 z86z204z3 z86z52z3 z86z174z1 z86z162z1 z86z151z1 z86z161z3 z86z237z1 
z72z37z2 z72z171z1 z72z171z2 z72z121z1 z72z121z2 z72z166z1 z72z30z1 z72z204z2 z72z174z1 z72z162z1 z72z162z2 z72z151z1 z72z23z2 z72z161z2 z72z237z1 
z200z37z2 z200z171z1 z200z171z2 z200z121z1 z200z121z2 z200z166z1 z200z30z1 z200z204z2 z200z174z1 z200z162z1 z200z162z2 z200z151z1 z200z23z2 z200z161z2 z200z237z1 
z140z166z1 z140z30z1 z140z204z2 z140z174z1 z140z162z1 z140z162z2 z140z151z1 z140z23z2 z140z161z2 z140z237z1 
z144z166z1 z144z30z1 z144z204z2 z144z174z1 z144z162z1 z144z162z2 z144z151z1 z144z23z2 z144z161z2 z144z237z1 
z124z161z3 
z21z35z3 z21z37z2 z21z171z2 z21z121z2 z21z204z2 z21z204z3 z21z52z3 z21z162z2 z21z23z2 z21z161z2 z21z161z3 
z24z35z3 z24z204z3 z24z52z3 z24z161z3 
z86z35z3 z86z171z1 z86z121z1 z86z166z1 z86z30z1 z86z204z3 z86z52z3 z86z174z1 z86z162z1 z86z151z1 z86z161z3 z86z237z1 
z201z35z3 z201z204z3 z201z52z3 z201z161z3 
z35z204z3 z35z52z3 z35z161z3 
z37z171z2 z37z121z2 z37z204z2 z37z162z2 z37z23z2 z37z161z2 
z171z166z1 z171z30z1 z171z204z2 z171z174z1 z171z162z1 z171z162z2 z171z151z1 z171z23z2 z171z161z2 z171z237z1 
z121z166z1 z121z30z1 z121z204z2 z121z174z1 z121z162z1 z121z162z2 z121z151z1 z121z23z2 z121z161z2 z121z237z1 
z166z30z1 z166z174z1 z166z162z1 z166z151z1 z166z237z1 
z30z174z1 z30z162z1 z30z151z1 z30z237z1 
z204z162z2 z204z23z2 z204z161z2 z204z161z3 
z52z161z3 
z174z162z1 z174z151z1 z174z237z1 
z162z151z1 z162z23z2 z162z161z2 z162z237z1 





End